10140
01010101010011010011
5 19 5 5 5 7 5 5 1 19 7 7 19 7 7 7 7 12 13 12 12 13 3 13 15 9 9 9 9 9 15 9 9 15 18 18 18 18 18 18 18 18 18 18 5 5 7 12 12 15 12 3 19 18 5 15 3 3 1 19 5 9 15 13 3 12 15 18 19 5 9 18 7 3 3 15 12 7 5 18 18 1 13 15 15 3 1 5 15 3 1 15 9 15 15 18 3 7 3 5 